17	4
13	12	12	12	
0	0	0	0	0	3	2	3	4	
8	4	0	3	8	1	5	
2	7	0	6	0	3	5	10	13	
9	7	0	7	4	3	11	12	13	
1	0	4	0	8	3	6	7	8	
125	0	10	0	0	3	9	17	17	
50	3	0	4	0	2	9	14	
50	0	8	0	0	1	17	
150	0	0	0	1	3	17	17	17	
100	0	3	5	1	2	14	16	
250	4	0	0	6	1	17	
175	7	0	0	0	1	17	
7	7	0	4	0	3	15	17	17	
2	0	10	2	0	3	17	17	17	
9	2	0	0	7	2	16	17	
3	7	0	0	10	1	17	
0	0	0	0	0	0	
